n = 35;
m = 58;
w = [8,6,6,9,3,7,6,4,9,8,7,3,10,7,2,2,8,3,10,3,9,6,1,9,1,4,5,5,9,1,10,1,3,5,9,7,2,7,9,9,6,9,4,3,10,9,6,1,10,2,5,5,7,9,5,7,10,5];
edges = array2d(1..m, 1..2, [1,28,2,4,2,11,2,14,3,5,3,7,3,18,3,34,4,7,4,13,4,23,4,24,5,19,6,8,6,15,6,16,6,22,6,27,6,28,6,29,7,14,7,28,7,31,7,34,8,17,8,30,8,32,9,33,10,12,10,16,10,27,10,31,11,31,12,15,13,16,13,22,13,23,14,21,14,30,14,32,14,35,16,20,16,30,17,33,18,27,19,27,19,35,22,30,23,26,24,31,24,33,25,30,26,30,26,32,27,35,30,31,32,35,33,35]);
